\ Model CrewScheduling
\ LP format - for model browsing. Use MPS format to capture full model detail.
\ Signature: 0xacee3023c914f201
Minimize
  x0 + x1 + x2 + x3 + x4 + x5 + x6 + x7 + x8 + x9 + x10 + x11 + x12 + x13
   + x14 + x15 + x16 + x17 + x18 + x19 + x20 + x21 + x22 + x23 + x24 + x25
   + x26 + x27 + x28 + x29 + x30 + x31 + x32 + x33 + x34 + x35 + x36 + x37
   + x38 + x39 + x40 + x41 + x42 + x43 + x44 + x45 + x46 + x47 + x48 + x49
   + x50 + x51 + x52 + x53 + x54 + x55 + x56 + x57 + x58 + x59 + x60 + x61
   + x62 + x63 + x64 + x65 + x66 + x67 + x68 + x69 + x70 + x71 + x72 + x73
   + x74 + x75 + x76 + x77 + x78 + x79 + x80 + x81 + x82 + x83 + x84 + x85
   + x86 + x87 + x88 + x89 + x90 + x91 + x92 + x93 + x94 + x95 + x96 + x97
   + x98 + x99 + x100 + x101 + x102 + x103 + x104 + x105 + x106 + x107
   + x108 + x109 + x110 + x111 + x112 + x113 + x114 + x115 + x116 + x117
   + x118 + x119 + x120 + x121 + x122 + x123 + x124 + x125 + x126 + x127
   + x128 + x129 + x130 + x131 + x132 + x133 + x134 + x135 + x136 + x137
   + x138 + x139 + x140 + x141 + x142 + x143 + x144 + x145 + x146 + x147
   + x148 + x149 + x150 + x151 + x152 + x153 + x154 + x155 + x156 + x157
   + x158 + x159 + x160 + x161 + x162 + x163 + x164 + x165 + x166 + x167
   + x168 + x169 + x170 + x171 + x172 + x173 + x174 + x175 + x176 + x177
   + x178 + x179 + x180 + x181 + x182 + x183 + x184 + x185 + x186 + x187
   + x188 + x189 + x190 + x191 + x192 + x193 + x194 + x195 + x196 + x197
   + x198 + x199 + x200 + x201 + x202 + x203
Subject To
 Service_336: x0 + x188 = 1
 Service_872: x1 + x191 = 1
 Service_873: x2 + x193 = 1
 Service_874: x3 + x194 = 1
 Service_875: x4 + x192 = 1
 Service_876: x5 + x199 = 1
 Service_877: x6 + x187 = 1
 Service_878: x7 + x201 = 1
 Service_879: x8 + x195 = 1
 Service_527: x9 = 1
 Service_880: x10 = 1
 Service_926: x11 = 1
 Service_927: x12 + x202 = 1
 Service_0: x13 = 1
 Service_881: x14 + x203 = 1
 Service_928: x15 = 1
 Service_693: x16 = 1
 Service_337: x17 + x190 = 1
 Service_694: x18 = 1
 Service_883: x19 + x189 = 1
 Service_1: x20 = 1
 Service_528: x21 = 1
 Service_882: x22 = 1
 Service_2: x23 + x200 = 1
 Service_884: x24 + x196 = 1
 Service_929: x25 = 1
 Service_695: x26 = 1
 Service_3: x27 = 1
 Service_338: x28 + x197 = 1
 Service_4: x29 = 1
 Service_529: x30 = 1
 Service_696: x31 = 1
 Service_5: x32 = 1
 Service_530: x11 = 1
 Service_339: x33 + x198 = 1
 Service_340: x34 + x187 = 1
 Service_697: x1 = 1
 Service_6: x35 = 1
 Service_7: x16 = 1
 Service_531: x36 = 1
 Service_698: x37 + x191 = 1
 Service_885: x38 = 1
 Service_341: x39 = 1
 Service_342: x40 + x188 = 1
 Service_8: x15 = 1
 Service_343: x41 = 1
 Service_532: x9 = 1
 Service_699: x7 + x202 = 1
 Service_9: x42 = 1
 Service_886: x43 = 1
 Service_533: x21 = 1
 Service_10: x26 = 1
 Service_700: x5 + x201 = 1
 Service_344: x44 + x189 = 1
 Service_887: x45 = 1
 Service_534: x46 = 1
 Service_11: x47 = 1
 Service_12: x31 = 1
 Service_888: x48 = 1
 Service_701: x12 + x203 = 1
 Service_345: x49 = 1
 Service_13: x50 = 1
 Service_702: x22 = 1
 Service_535: x30 = 1
 Service_346: x6 + x190 = 1
 Service_14: x1 = 1
 Service_347: x19 + x193 = 1
 Service_15: x51 = 1
 Service_889: x52 = 1
 Service_536: x53 = 1
 Service_703: x18 = 1
 Service_890: x54 = 1
 Service_16: x28 = 1
 Service_537: x36 = 1
 Service_704: x4 + x199 = 1
 Service_17: x37 + x192 = 1
 Service_348: x55 = 1
 Service_705: x14 = 1
 Service_538: x56 = 1
 Service_18: x3 = 1
 Service_349: x2 + x194 = 1
 Service_891: x57 = 1
 Service_19: x7 + x202 = 1
 Service_706: x25 = 1
 Service_539: x9 = 1
 Service_20: x33 = 1
 Service_892: x58 = 1
 Service_350: x59 = 1
 Service_707: x38 = 1
 Service_21: x5 + x201 = 1
 Service_540: x21 = 1
 Service_351: x60 + x187 + x195 + x196 + x197 + x198 = 1
 Service_22: x23 = 1
 Service_708: x10 = 1
 Service_893: x61 = 1
 Service_541: x11 = 1
 Service_23: x12 + x203 = 1
 Service_352: x62 = 1
 Service_24: x34 = 1
 Service_709: x43 = 1
 Service_542: x46 = 1
 Service_353: x27 = 1
 Service_25: x22 = 1
 Service_710: x29 = 1
 Service_26: x8 = 1
 Service_27: x18 = 1
 Service_543: x30 = 1
 Service_354: x63 = 1
 Service_711: x20 = 1
 Service_28: x39 = 1
 Service_29: x4 = 1
 Service_355: x32 = 1
 Service_544: x64 = 1
 Service_712: x48 = 1
 Service_30: x0 = 1
 Service_31: x14 = 1
 Service_356: x65 = 1
 Service_545: x53 = 1
 Service_713: x45 = 1
 Service_32: x17 = 1
 Service_357: x44 + x200 = 1
 Service_33: x25 = 1
 Service_546: x36 = 1
 Service_714: x35 = 1
 Service_34: x40 + x189 = 1
 Service_715: x13 = 1
 Service_35: x38 = 1
 Service_358: x66 = 1
 Service_547: x56 = 1
 Service_36: x6 = 1
 Service_37: x10 = 1
 Service_359: x41 = 1
 Service_548: x9 = 1
 Service_716: x54 = 1
 Service_717: x42 = 1
 Service_38: x19 = 1
 Service_360: x24 = 1
 Service_39: x43 = 1
 Service_361: x67 = 1
 Service_549: x21 = 1
 Service_40: x49 = 1
 Service_41: x29 = 1
 Service_718: x57 = 1
 Service_362: x55 = 1
 Service_550: x11 = 1
 Service_42: x2 = 1
 Service_43: x20 = 1
 Service_363: x68 = 1
 Service_719: x58 = 1
 Service_44: x16 = 1
 Service_364: x15 = 1
 Service_551: x46 = 1
 Service_45: x48 = 1
 Service_720: x52 = 1
 Service_46: x31 = 1
 Service_365: x69 = 1
 Service_47: x47 = 1
 Service_552: x30 = 1
 Service_366: x60 + x188 = 1
 Service_48: x62 = 1
 Service_721: x50 = 1
 Service_49: x35 = 1
 Service_553: x64 = 1
 Service_367: x26 = 1
 Service_50: x59 = 1
 Service_722: x61 = 1
 Service_51: x13 = 1
 Service_554: x53 = 1
 Service_368: x27 = 1
 Service_52: x1 = 1
 Service_53: x54 = 1
 Service_54: x70 + x197 = 1
 Service_723: x28 = 1
 Service_369: x37 + x193 + x195 + x198 = 1
 Service_555: x36 = 1
 Service_56: x42 = 1
 Service_55: x71 = 1
 Service_724: x3 = 1
 Service_556: x56 = 1
 Service_370: x7 = 1
 Service_57: x72 = 1
 Service_58: x57 = 1
 Service_725: x51 = 1
 Service_371: x65 = 1
 Service_557: x9 = 1
 Service_59: x5 = 1
 Service_60: x58 = 1
 Service_726: x23 = 1
 Service_61: x73 + x203 = 1
 Service_372: x44 + x201 = 1
 Service_558: x21 = 1
 Service_62: x52 = 1
 Service_63: x74 + x196 = 1
 Service_727: x34 = 1
 Service_373: x22 = 1
 Service_559: x11 = 1
 Service_64: x75 = 1
 Service_65: x50 = 1
 Service_728: x8 = 1
 Service_374: x24 = 1
 Service_66: x41 = 1
 Service_560: x46 = 1
 Service_729: x39 = 1
 Service_67: x61 = 1
 Service_375: x67 = 1
 Service_68: x76 = 1
 Service_561: x30 = 1
 Service_69: x28 = 1
 Service_730: x0 = 1
 Service_376: x55 = 1
 Service_70: x77 = 1
 Service_562: x64 = 1
 Service_731: x17 = 1
 Service_71: x3 = 1
 Service_377: x25 = 1
 Service_72: x78 = 1
 Service_73: x51 = 1
 Service_732: x40 + x191 = 1
 Service_563: x53 = 1
 Service_378: x15 = 1
 Service_74: x79 = 1
 Service_733: x80 + x189 = 1
 Service_564: x36 = 1
 Service_75: x23 = 1
 Service_379: x60 + x190 = 1
 Service_76: x81 + x188 = 1
 Service_734: x82 = 1
 Service_77: x34 = 1
 Service_565: x56 = 1
 Service_380: x26 = 1
 Service_735: x83 = 1
 Service_78: x84 = 1
 Service_79: x8 = 1
 Service_381: x27 = 1
 Service_566: x9 = 1
 Service_736: x85 = 1
 Service_80: x86 = 1
 Service_81: x39 = 1
 Service_382: x37 + x194 + x200 + x202 = 1
 Service_737: x87 = 1
 Service_567: x21 = 1
 Service_82: x88 = 1
 Service_738: x89 = 1
 Service_83: x0 = 1
 Service_383: x7 = 1
 Service_568: x11 = 1
 Service_84: x90 = 1
 Service_739: x91 = 1
 Service_85: x17 = 1
 Service_384: x65 = 1
 Service_86: x92 = 1
 Service_740: x19 = 1
 Service_569: x46 = 1
 Service_87: x93 + x191 = 1
 Service_385: x44 = 1
 Service_741: x94 = 1
 Service_88: x38 = 1
 Service_570: x30 = 1
 Service_89: x80 + x199 = 1
 Service_742: x95 = 1
 Service_386: x22 = 1
 Service_90: x96 = 1
 Service_571: x64 = 1
 Service_91: x82 = 1
 Service_743: x1 = 1
 Service_387: x24 = 1
 Service_92: x97 + x187 = 1
 Service_572: x53 = 1
 Service_93: x83 = 1
 Service_744: x70 = 1
 Service_388: x67 = 1
 Service_95: x98 = 1
 Service_94: x85 = 1
 Service_745: x71 = 1
 Service_573: x36 = 1
 Service_389: x55 = 1
 Service_97: x87 = 1
 Service_96: x99 = 1
 Service_746: x5 = 1
 Service_574: x56 = 1
 Service_98: x89 = 1
 Service_390: x100 + x192 = 1
 Service_99: x101 = 1
 Service_100: x91 = 1
 Service_747: x72 = 1
 Service_391: x102 + x193 = 1
 Service_575: x9 = 1
 Service_101: x103 = 1
 Service_102: x73 = 1
 Service_748: x74 + x197 = 1
 Service_392: x104 + x195 = 1
 Service_103: x105 = 1
 Service_576: x21 = 1
 Service_104: x94 = 1
 Service_749: x41 = 1
 Service_393: x106 + x201 = 1
 Service_577: x11 = 1
 Service_106: x95 = 1
 Service_750: x75 = 1
 Service_105: x107 = 1
 Service_394: x108 = 1
 Service_894: x1 = 1
 Service_751: x76 = 1
 Service_578: x46 = 1
 Service_108: x70 = 1
 Service_107: x109 + x200 = 1
 Service_395: x110 + x194 = 1
 Service_752: x78 = 1
 Service_895: x111 = 1
 Service_109: x112 + x202 = 1
 Service_396: x113 = 1
 Service_110: x71 = 1
 Service_579: x64 = 1
 Service_753: x79 = 1
 Service_397: x50 = 1
 Service_111: x114 + x190 = 1
 Service_580: x53 = 1
 Service_112: x19 = 1
 Service_754: x81 + x189 = 1
 Service_113: x115 = 1
 Service_398: x116 = 1
 Service_114: x72 = 1
 Service_581: x30 = 1
 Service_755: x77 = 1
 Service_115: x117 = 1
 Service_399: x61 = 1
 Service_116: x74 + x203 = 1
 Service_756: x84 = 1
 Service_582: x56 = 1
 Service_896: x41 = 1
 Service_400: x118 = 1
 Service_117: x119 = 1
 Service_401: x120 + x198 = 1
 Service_757: x86 = 1
 Service_118: x75 = 1
 Service_583: x36 = 1
 Service_897: x121 = 1
 Service_119: x122 = 1
 Service_402: x28 = 1
 Service_758: x88 = 1
 Service_120: x76 = 1
 Service_403: x123 = 1
 Service_584: x21 = 1
 Service_759: x90 = 1
 Service_121: x124 = 1
 Service_404: x125 = 1
 Service_122: x78 = 1
 Service_760: x92 = 1
 Service_585: x11 = 1
 Service_123: x102 = 1
 Service_405: x93 + x192 = 1
 Service_124: x79 = 1
 Service_761: x96 = 1
 Service_406: x80 = 1
 Service_586: x46 = 1
 Service_125: x82 = 1
 Service_126: x81 + x196 = 1
 Service_762: x97 + x188 = 1
 Service_898: x38 = 1
 Service_587: x64 = 1
 Service_127: x83 = 1
 Service_407: x106 + x191 = 1
 Service_128: x84 = 1
 Service_763: x98 = 1
 Service_588: x53 = 1
 Service_899: x1 = 1
 Service_129: x104 + x201 = 1
 Service_130: x86 = 1
 Service_408: x100 + x193 = 1
 Service_764: x99 = 1
 Service_589: x30 = 1
 Service_131: x87 = 1
 Service_409: x110 + x195 = 1
 Service_132: x101 = 1
 Service_765: x103 = 1
 Service_133: x85 = 1
 Service_590: x56 = 1
 Service_134: x90 = 1
 Service_410: x108 = 1
 Service_766: x105 = 1
 Service_135: x116 = 1
 Service_591: x36 = 1
 Service_411: x73 = 1
 Service_136: x92 = 1
 Service_592: x21 = 1
 Service_767: x107 = 1
 Service_412: x94 = 1
 Service_137: x95 = 1
 Service_138: x96 = 1
 Service_768: x109 = 1
 Service_139: x120 + x199 = 1
 Service_593: x11 = 1
 Service_413: x70 = 1
 Service_140: x77 = 1
 Service_769: x112 = 1
 Service_141: x89 = 1
 Service_594: x46 = 1
 Service_142: x98 = 1
 Service_414: x71 = 1
 Service_770: x88 = 1
 Service_143: x91 = 1
 Service_595: x9 = 1
 Service_415: x125 = 1
 Service_144: x99 = 1
 Service_145: x118 = 1
 Service_771: x115 = 1
 Service_596: x53 = 1
 Service_416: x93 + x194 = 1
 Service_146: x103 = 1
 Service_772: x114 + x197 = 1
 Service_147: x72 + x192 = 1
 Service_417: x80 + x203 = 1
 Service_597: x64 = 1
 Service_148: x105 = 1
 Service_773: x117 = 1
 Service_418: x75 = 1
 Service_598: x56 = 1
 Service_149: x113 = 1
 Service_150: x97 + x189 = 1
 Service_419: x123 = 1
 Service_774: x119 + x188 = 1
 Service_151: x106 = 1
 Service_152: x109 = 1
 Service_599: x36 = 1
 Service_775: x122 = 1
 Service_420: x74 = 1
 Service_153: x110 + x198 = 1
 Service_154: x112 = 1
 Service_600: x21 = 1
 Service_776: x124 = 1
 Service_421: x78 = 1
 Service_155: x100 = 1
 Service_601: x11 = 1
 Service_156: x88 = 1
 Service_157: x76 = 1
 Service_777: x82 = 1
 Service_422: x81 + x196 = 1
 Service_602: x46 = 1
 Service_158: x115 = 1
 Service_423: x79 = 1
 Service_778: x83 = 1
 Service_159: x84 = 1
 Service_603: x9 = 1
 Service_160: x114 + x200 = 1
 Service_424: x108 = 1
 Service_779: x107 = 1
 Service_161: x94 = 1
 Service_162: x117 = 1
 Service_604: x30 = 1
 Service_780: x87 = 1
 Service_425: x71 = 1
 Service_163: x73 = 1
 Service_164: x119 + x187 = 1
 Service_605: x53 = 1
 Service_781: x85 = 1
 Service_426: x101 = 1
 Service_165: x90 = 1
 Service_166: x122 = 1
 Service_606: x64 = 1
 Service_782: x116 = 1
 Service_427: x93 + x195 = 1
 Service_167: x86 = 1
 Service_168: x124 = 1
 Service_607: x36 = 1
 Service_428: x80 = 1
 Service_169: x92 = 1
 Service_783: x95 = 1
 Service_170: x82 = 1
 Service_608: x21 = 1
 Service_784: x120 + x197 = 1
 Service_171: x75 = 1
 Service_429: x125 = 1
 Service_172: x83 = 1
 Service_609: x56 = 1
 Service_430: x77 = 1
 Service_785: x89 = 1
 Service_173: x123 = 1
 Service_174: x107 = 1
 Service_610: x46 = 1
 Service_431: x70 = 1
 Service_786: x91 = 1
 Service_175: x99 = 1
 Service_176: x104 + x202 = 1
 Service_611: x9 = 1
 Service_432: x103 = 1
 Service_787: x118 = 1
 Service_177: x98 = 1
 Service_178: x85 = 1
 Service_612: x11 = 1
 Service_788: x102 = 1
 Service_179: x78 = 1
 Service_433: x105 = 1
 Service_180: x116 + x190 = 1
 Service_613: x30 = 1
 Service_789: x113 = 1
 Service_181: x96 = 1
 Service_434: x74 + x189 + x193 = 1
 Service_182: x95 = 1
 Service_614: x64 = 1
 Service_790: x106 = 1
 Service_183: x108 = 1
 Service_435: x81 + x194 = 1
 Service_184: x120 + x201 = 1
 Service_615: x36 = 1
 Service_436: x112 = 1
 Service_791: x110 + x198 = 1
 Service_185: x71 = 1
 Service_186: x89 = 1
 Service_616: x21 = 1
 Service_437: x88 = 1
 Service_792: x100 = 1
 Service_188: x97 + x191 = 1
 Service_187: x91 = 1
 Service_617: x56 = 1
 Service_793: x72 = 1
 Service_438: x109 = 1
 Service_189: x118 = 1
 Service_190: x115 = 1
 Service_618: x46 = 1
 Service_794: x84 = 1
 Service_439: x80 + x195 = 1
 Service_192: x101 = 1
 Service_191: x102 = 1
 Service_619: x53 = 1
 Service_795: x87 = 1
 Service_440: x117 = 1
 Service_193: x114 = 1
 Service_194: x113 = 1
 Service_620: x9 = 1
 Service_441: x119 + x200 = 1
 Service_796: x73 = 1
 Service_195: x77 = 1
 Service_196: x106 = 1
 Service_621: x30 = 1
 Service_797: x94 = 1
 Service_442: x122 = 1
 Service_197: x125 = 1
 Service_198: x110 + x199 = 1
 Service_622: x64 = 1
 Service_443: x126 = 1
 Service_798: x76 = 1
 Service_444: x70 = 1
 Service_199: x93 + x196 = 1
 Service_200: x100 = 1
 Service_623: x11 = 1
 Service_799: x92 = 1
 Service_445: x82 = 1
 Service_202: x105 = 1
 Service_201: x72 = 1
 Service_900: x127 = 1
 Service_624: x21 = 1
 Service_800: x75 = 1
 Service_801: x90 = 1
 Service_203: x83 = 1
 Service_204: x84 = 1
 Service_446: x79 = 1
 Service_625: x36 = 1
 Service_205: x124 = 1
 Service_447: x107 = 1
 Service_206: x123 = 1
 Service_802: x86 = 1
 Service_626: x56 = 1
 Service_207: x81 = 1
 Service_208: x73 = 1
 Service_448: x104 + x203 = 1
 Service_627: x53 = 1
 Service_803: x99 = 1
 Service_209: x112 = 1
 Service_449: x128 = 1
 Service_450: x85 = 1
 Service_210: x98 = 1
 Service_628: x46 = 1
 Service_211: x88 = 1
 Service_804: x129 + x188 = 1
 Service_629: x9 = 1
 Service_212: x76 = 1
 Service_451: x103 = 1
 Service_213: x74 = 1
 Service_805: x78 = 1
 Service_630: x30 = 1
 Service_214: x109 = 1
 Service_215: x92 = 1
 Service_452: x95 = 1
 Service_806: x108 = 1
 Service_453: x116 = 1
 Service_216: x96 = 1
 Service_217: x80 = 1
 Service_631: x64 = 1
 Service_901: x130 = 1
 Service_807: x71 = 1
 Service_218: x87 = 1
 Service_219: x117 = 1
 Service_454: x120 + x202 = 1
 Service_632: x11 = 1
 Service_808: x97 + x192 = 1
 Service_220: x119 = 1
 Service_221: x86 = 1
 Service_633: x21 = 1
 Service_455: x89 = 1
 Service_222: x91 = 1
 Service_809: x115 = 1
 Service_634: x36 = 1
 Service_456: x122 = 1
 Service_223: x99 = 1
 Service_224: x126 = 1
 Service_457: x70 = 1
 Service_635: x56 = 1
 Service_810: x94 = 1
 Service_225: x129 + x191 = 1
 Service_226: x102 = 1
 Service_636: x53 = 1
 Service_811: x101 = 1
 Service_458: x82 = 1
 Service_227: x79 = 1
 Service_228: x114 = 1
 Service_812: x75 = 1
 Service_637: x46 = 1
 Service_459: x113 = 1
 Service_229: x118 = 1
 Service_460: x106 = 1
 Service_230: x108 = 1
 Service_813: x90 = 1
 Service_638: x9 = 1
 Service_461: x107 = 1
 Service_231: x104 = 1
 Service_232: x77 = 1
 Service_814: x125 = 1
 Service_639: x30 = 1
 Service_233: x110 = 1
 Service_462: x128 = 1
 Service_234: x97 + x196 = 1
 Service_815: x93 + x197 = 1
 Service_640: x64 = 1
 Service_235: x100 = 1
 Service_463: x85 = 1
 Service_236: x115 = 1
 Service_816: x105 = 1
 Service_237: x103 = 1
 Service_641: x11 = 1
 Service_238: x94 = 1
 Service_817: x131 + x188 = 1
 Service_464: x132 + x187 = 1
 Service_642: x21 = 1
 Service_239: x133 + x189 = 1
 Service_240: x101 = 1
 Service_818: x124 = 1
 Service_465: x95 = 1
 Service_241: x123 = 1
 Service_643: x36 = 1
 Service_242: x134 + x198 = 1
 Service_819: x81 = 1
 Service_466: x127 = 1
 Service_243: x120 = 1
 Service_244: x135 = 1
 Service_644: x56 = 1
 Service_467: x116 = 1
 Service_820: x112 = 1
 Service_468: x73 = 1
 Service_245: x98 = 1
 Service_246: x125 = 1
 Service_645: x53 = 1
 Service_821: x88 = 1
 Service_469: x89 = 1
 Service_247: x122 = 1
 Service_248: x93 = 1
 Service_646: x46 = 1
 Service_822: x74 = 1
 Service_249: x136 + x193 = 1
 Service_470: x70 = 1
 Service_250: x137 = 1
 Service_823: x78 = 1
 Service_647: x9 = 1
 Service_251: x138 + x194 = 1
 Service_252: x131 = 1
 Service_824: x80 = 1
 Service_648: x30 = 1
 Service_471: x96 = 1
 Service_253: x113 = 1
 Service_254: x124 = 1
 Service_825: x117 = 1
 Service_472: x87 = 1
 Service_649: x64 = 1
 Service_255: x106 = 1
 Service_256: x109 = 1
 Service_826: x119 = 1
 Service_473: x139 + x190 = 1
 Service_650: x11 = 1
 Service_257: x107 = 1
 Service_258: x140 = 1
 Service_827: x90 = 1
 Service_474: x130 = 1
 Service_259: x128 = 1
 Service_651: x21 = 1
 Service_260: x141 = 1
 Service_828: x126 = 1
 Service_475: x142 + x195 = 1
 Service_652: x36 = 1
 Service_261: x143 = 1
 Service_262: x144 = 1
 Service_829: x105 = 1
 Service_476: x129 + x199 = 1
 Service_263: x132 = 1
 Service_653: x56 = 1
 Service_264: x102 = 1
 Service_830: x79 = 1
 Service_477: x114 = 1
 Service_265: x145 + x200 = 1
 Service_266: x146 = 1
 Service_654: x53 = 1
 Service_831: x118 = 1
 Service_478: x108 = 1
 Service_267: x127 = 1
 Service_268: x147 = 1
 Service_655: x46 = 1
 Service_832: x104 = 1
 Service_479: x77 = 1
 Service_269: x116 = 1
 Service_270: x148 = 1
 Service_656: x9 = 1
 Service_833: x110 = 1
 Service_480: x97 + x202 = 1
 Service_271: x149 = 1
 Service_272: x150 = 1
 Service_834: x100 = 1
 Service_657: x30 = 1
 Service_481: x151 + x187 = 1
 Service_273: x152 = 1
 Service_274: x126 = 1
 Service_835: x103 = 1
 Service_482: x153 + x203 = 1
 Service_658: x64 = 1
 Service_275: x154 = 1
 Service_276: x155 = 1
 Service_836: x133 + x192 = 1
 Service_483: x101 = 1
 Service_659: x11 = 1
 Service_277: x156 = 1
 Service_278: x157 = 1
 Service_837: x123 = 1
 Service_484: x134 = 1
 Service_660: x21 = 1
 Service_279: x158 = 1
 Service_280: x159 = 1
 Service_838: x120 = 1
 Service_485: x135 = 1
 Service_281: x139 = 1
 Service_661: x56 = 1
 Service_282: x104 = 1
 Service_839: x112 = 1
 Service_486: x125 = 1
 Service_283: x130 = 1
 Service_284: x160 = 1
 Service_662: x53 = 1
 Service_840: x122 = 1
 Service_487: x161 + x198 = 1
 Service_285: x142 = 1
 Service_286: x162 = 1
 Service_841: x136 + x197 = 1
 Service_663: x46 = 1
 Service_488: x137 = 1
 Service_287: x129 = 1
 Service_288: x163 = 1
 Service_842: x138 = 1
 Service_489: x131 = 1
 Service_289: x164 + x199 = 1
 Service_664: x36 = 1
 Service_290: x133 = 1
 Service_843: x113 = 1
 Service_490: x165 + x195 = 1
 Service_291: x166 = 1
 Service_292: x123 = 1
 Service_665: x9 = 1
 Service_844: x117 = 1
 Service_491: x108 = 1
 Service_293: x167 = 1
 Service_294: x168 = 1
 Service_845: x119 = 1
 Service_666: x30 = 1
 Service_492: x140 = 1
 Service_295: x169 = 1
 Service_846: x128 = 1
 Service_296: x170 = 1
 Service_493: x141 = 1
 Service_667: x64 = 1
 Service_847: x143 = 1
 Service_494: x144 = 1
 Service_902: x151 + x190 = 1
 Service_297: x171 = 1
 Service_668: x21 = 1
 Service_298: x153 = 1
 Service_848: x132 = 1
 Service_495: x172 + x187 = 1
 Service_299: x136 = 1
 Service_669: x56 = 1
 Service_849: x145 = 1
 Service_496: x114 = 1
 Service_301: x138 = 1
 Service_300: x146 = 1
 Service_850: x127 = 1
 Service_670: x53 = 1
 Service_497: x134 = 1
 Service_302: x173 = 1
 Service_851: x118 = 1
 Service_903: x147 = 1
 Service_498: x148 = 1
 Service_671: x11 = 1
 Service_303: x174 = 1
 Service_852: x149 = 1
 Service_304: x135 = 1
 Service_499: x150 = 1
 Service_305: x175 = 1
 Service_672: x36 = 1
 Service_853: x152 = 1
 Service_306: x176 = 1
 Service_500: x126 = 1
 Service_307: x128 = 1
 Service_904: x161 = 1
 Service_673: x9 = 1
 Service_854: x154 = 1
 Service_501: x137 = 1
 Service_308: x143 = 1
 Service_855: x156 = 1
 Service_309: x155 = 1
 Service_502: x157 = 1
 Service_310: x132 = 1
 Service_856: x158 = 1
 Service_674: x64 = 1
 Service_311: x131 = 1
 Service_503: x159 = 1
 Service_906: x145 + x193 + x194 + x197 = 1
 Service_905: x125 = 1
 Service_857: x139 = 1
 Service_504: x165 = 1
 Service_312: x177 = 1
 Service_313: x127 = 1
 Service_675: x21 = 1
 Service_907: x178 = 1
 Service_314: x179 = 1
 Service_858: x130 = 1
 Service_315: x180 = 1
 Service_505: x140 = 1
 Service_909: x152 = 1
 Service_908: x181 = 1
 Service_676: x30 = 1
 Service_316: x162 = 1
 Service_317: x142 = 1
 Service_506: x160 = 1
 Service_910: x182 = 1
 Service_911: x163 = 1
 Service_859: x129 = 1
 Service_318: x156 = 1
 Service_507: x133 = 1
 Service_677: x56 = 1
 Service_319: x172 = 1
 Service_320: x166 = 1
 Service_912: x93 = 1
 Service_860: x167 = 1
 Service_914: x183 = 1
 Service_913: x184 = 1
 Service_321: x139 = 1
 Service_508: x144 = 1
 Service_322: x148 = 1
 Service_678: x11 = 1
 Service_509: x141 = 1
 Service_915: x185 = 1
 Service_861: x164 = 1
 Service_916: x145 = 1
 Service_510: x170 = 1
 Service_323: x130 = 1
 Service_679: x149 = 1
 Service_862: x169 = 1
 Service_511: x150 = 1
 Service_324: x126 = 1
 Service_512: x171 = 1
 Service_680: x21 = 1
 Service_863: x153 = 1
 Service_513: x138 = 1
 Service_917: x152 = 1
 Service_325: x129 = 1
 Service_864: x146 = 1
 Service_681: x46 = 1
 Service_326: x159 = 1
 Service_514: x173 = 1
 Service_865: x154 = 1
 Service_327: x167 = 1
 Service_866: x135 = 1
 Service_515: x175 = 1
 Service_918: x164 = 1
 Service_328: x174 = 1
 Service_682: x53 = 1
 Service_867: x176 = 1
 Service_919: x161 = 1
 Service_516: x128 = 1
 Service_329: x169 = 1
 Service_683: x56 = 1
 Service_517: x143 = 1
 Service_920: x153 = 1
 Service_868: x155 = 1
 Service_518: x132 = 1
 Service_330: x160 = 1
 Service_684: x11 = 1
 Service_921: x186 + x190 + x193 + x194 + x197 = 1
 Service_519: x127 = 1
 Service_922: x122 = 1
 Service_331: x177 = 1
 Service_869: x158 = 1
 Service_923: x113 = 1
 Service_685: x149 = 1
 Service_924: x151 = 1
 Service_332: x140 = 1
 Service_925: x147 = 1
 Service_520: x180 = 1
 Service_333: x162 = 1
 Service_686: x64 = 1
 Service_870: x131 = 1
 Service_334: x142 = 1
 Service_521: x156 = 1
 Service_871: x154 = 1
 Service_335: x146 = 1
 Service_687: x9 = 1
 Service_522: x166 = 1
 Service_688: x30 = 1
 Service_930: x135 = 1
 Service_523: x134 = 1
 Service_689: x46 = 1
 Service_931: x148 = 1
 Service_524: x130 = 1
 Service_690: x53 = 1
 Service_932: x174 = 1
 Service_525: x173 = 1
 Service_691: x21 = 1
 Service_933: x160 = 1
 Service_526: x177 = 1
 Service_692: x148 = 1
Bounds
End
